(set-logic QF_BV)
(declare-fun _substvar_138_ () (_ BitVec 32))
(declare-fun _substvar_194_ () (_ BitVec 32))
(declare-fun _substvar_163_ () (_ BitVec 32))
(declare-fun _substvar_184_ () (_ BitVec 32))
(declare-fun _substvar_131_ () (_ BitVec 32))
(declare-fun _substvar_137_ () (_ BitVec 129))
(declare-fun _substvar_134_ () (_ BitVec 32))
(declare-fun _substvar_132_ () (_ BitVec 32))
(declare-fun _substvar_192_ () (_ BitVec 129))
(declare-fun _substvar_164_ () (_ BitVec 32))
(declare-fun _substvar_198_ () (_ BitVec 32))
(declare-fun _substvar_136_ () (_ BitVec 32))
(declare-fun _substvar_133_ () (_ BitVec 32))
(assert (let ((?v_8 (= _substvar_164_ _substvar_163_)) (?v_5 (= _substvar_134_ (_ bv1 32))) (?v_18 ((_ extract 63 32) _substvar_192_)) (?v_19 ((_ extract 31 0) _substvar_192_)) (?v_28 (= _substvar_131_ _substvar_163_)) (?v_25 (= _substvar_138_ (_ bv1 32))) (?v_35 ((_ extract 63 32) _substvar_137_)) (?v_36 ((_ extract 31 0) _substvar_137_))) (and ?v_8 true ?v_8 ?v_5 (= _substvar_192_ (concat (concat (_ bv0 65) _substvar_134_) _substvar_164_)) (and true true true (= _substvar_136_ ?v_18) (= _substvar_198_ ?v_19)) (= _substvar_133_ (bvor (bvor (bvor _substvar_198_ _substvar_136_) (_ bv0 32)) (_ bv0 32))) ?v_28 ?v_25 ?v_28 true (= _substvar_137_ (concat (concat (_ bv0 65) _substvar_138_) _substvar_131_)) (and true true true (= _substvar_184_ ?v_35) (= _substvar_132_ ?v_36)) (= _substvar_194_ (bvor (bvor (bvor _substvar_132_ _substvar_184_) (_ bv0 32)) (_ bv0 32))) true (not (= _substvar_133_ _substvar_194_)))))
(check-sat)
(exit)
